language ESSENCE' 1.0

letting fixed be 
[
    [5,0,0,2,9,1,8,3,6],
    [0,3,0,4,7,5,0,1,0],
    [0,0,9,3,8,6,4,5,7],
    [0,5,0,1,4,3,0,0,0],
    [4,0,0,7,0,9,0,0,1],
    [0,0,0,8,0,2,0,4,0],
    [3,0,0,0,2,0,1,7,0],
    [0,8,0,9,3,7,0,2,0],
    [7,0,2,0,1,0,0,0,3]
]